
===== New CPLEX run =====
Instance: /home/yorig/tuner/mpils-tests/instances/miplib/easy/mas74.mps
Config: /scratch/yorig/mpils-results-grid-ticks-10000-divide/easy/16proc/seed-4/5_mas74_seed-4_20260429_043455/expansion/config_param_CPXPARAM_Simplex_DGradient_1_iter_3.prm
========================

Selected objective sense:  MINIMIZE
Selected objective  name:  obj
Selected RHS        name:  rhs
Selected bound      name:  bnd
Version identifier: 22.1.2.0 | 2024-11-26 | 0edbb82fd
CPXPARAM_Simplex_DGradient                       1
CPXPARAM_Threads                                 8
CPXPARAM_Parallel                                1
CPXPARAM_MIP_Cuts_Cliques                        1
CPXPARAM_MIP_Cuts_Covers                         -1
CPXPARAM_MIP_Strategy_PresolveNode               -1
CPXPARAM_MIP_Cuts_FlowCovers                     -1
CPXPARAM_MIP_Cuts_Implied                        -1
CPXPARAM_MIP_Cuts_GUBCovers                      -1
CPXPARAM_MIP_Limits_GomoryCand                   10
CPXPARAM_MIP_Cuts_Gomory                         2
CPXPARAM_MIP_Cuts_PathCut                        2
CPXPARAM_MIP_Cuts_MIRCut                         -1
CPXPARAM_MIP_Cuts_Disjunctive                    2
CPXPARAM_Emphasis_MIP                            3
CPXPARAM_MIP_Strategy_RINSHeur                   20
CPXPARAM_DetTimeLimit                            10000
CPXPARAM_MIP_Limits_CutsFactor                   1
Found incumbent of value 157344.610330 after 0.00 sec. (0.02 ticks)
Tried aggregator 1 time.
MIP Presolve eliminated 0 rows and 3 columns.
Reduced MIP has 13 rows, 148 columns, and 1682 nonzeros.
Reduced MIP has 145 binaries, 2 generals, 0 SOSs, and 0 indicators.
Presolve time = 0.00 sec. (0.84 ticks)
Probing time = 0.00 sec. (0.09 ticks)
Tried aggregator 1 time.
Detecting symmetries...
Reduced MIP has 13 rows, 148 columns, and 1682 nonzeros.
Reduced MIP has 145 binaries, 2 generals, 0 SOSs, and 0 indicators.
Presolve time = 0.00 sec. (0.79 ticks)
Probing time = 0.00 sec. (0.09 ticks)
MIP emphasis: best bound.
MIP search method: dynamic search.
Parallel mode: deterministic, using up to 8 threads.
Root relaxation solution time = 0.01 sec. (0.60 ticks)

        Nodes                                         Cuts/
   Node  Left     Objective  IInf  Best Integer    Best Bound    ItCnt     Gap

*     0+    0                       157344.6103        0.0000           100.00%
*     0+    0                        51840.4943        0.0000           100.00%
      0     0    10482.7953    12    51840.4943    10482.7953       36   79.78%
*     0+    0                        19197.4680    10482.7953            45.39%
*     0+    0                        15240.3317    10482.7953            31.22%
*     0+    0                        14372.8713    10482.7953            27.07%
*     0+    0                        13174.3215    10513.0180            20.20%
Detecting symmetries...
      0     2    10482.7953    12    13174.3215    10534.0211       36   20.04%
Elapsed time = 0.58 sec. (10.90 ticks, tree = 0.02 MB, solutions = 6)
*    10+    7                        12915.1000    10534.0211            18.44%
*    40+    3                        12879.6944    10534.0211            18.21%
*   129+   59                        12698.5451    10534.0211            17.05%
*   240+   90                        12615.6182    10542.8535            16.43%
*   252+   90                        12464.1000    10542.8535            15.41%
*   282+  147                        12180.1000    10542.8535            13.44%

Performing restart 1

Repeating presolve.
Tried aggregator 1 time.
MIP Presolve eliminated 0 rows and 42 columns.
Reduced MIP has 13 rows, 106 columns, and 1144 nonzeros.
Reduced MIP has 104 binaries, 1 generals, 0 SOSs, and 0 indicators.
Presolve time = 0.00 sec. (0.41 ticks)
Tried aggregator 1 time.
Reduced MIP has 13 rows, 106 columns, and 1144 nonzeros.
Reduced MIP has 104 binaries, 1 generals, 0 SOSs, and 0 indicators.
Presolve time = 0.00 sec. (0.52 ticks)
Represolve time = 0.00 sec. (1.31 ticks)
*  2890+  117                        11978.7980    10727.8120            10.44%
   3061   220    10922.8442    12    11978.7980    10727.8120    17817   10.44%
*  3380+  447                        11801.1857    10734.0823             9.04%
   5605  2171    11005.5959    11    11801.1857    10826.7712    30710    8.26%
  31645 26534    11506.1141    12    11801.1857    11092.8543   197647    6.00%
  47841 41796    11173.4328    12    11801.1857    11113.7813   304114    5.82%
  62198 54284    11208.4114    11    11801.1857    11113.7813   393067    5.82%
  78433 68152    11295.7528    12    11801.1857    11114.5441   493409    5.82%

Performing restart 2

Repeating presolve.
Tried aggregator 1 time.
MIP Presolve eliminated 0 rows and 9 columns.
Reduced MIP has 13 rows, 97 columns, and 1030 nonzeros.
Reduced MIP has 95 binaries, 1 generals, 0 SOSs, and 0 indicators.
Presolve time = 0.00 sec. (0.34 ticks)
Tried aggregator 1 time.
Reduced MIP has 13 rows, 97 columns, and 1030 nonzeros.
Reduced MIP has 95 binaries, 1 generals, 0 SOSs, and 0 indicators.
Presolve time = 0.00 sec. (0.46 ticks)
Represolve time = 0.03 sec. (2.95 ticks)
  85899   406    10801.5742    12    11801.1857    11223.8111   542084    4.89%
 107858 20168    11157.5811    11    11801.1857    11223.8111   673484    4.89%
 136491 44796    11256.4610    12    11801.1857    11223.8111   843821    4.89%
 262622 149848    11473.0440    11    11801.1857    11356.7289  1620052    3.77%
Elapsed time = 18.09 sec. (3113.09 ticks, tree = 33.62 MB, solutions = 25)
 395762 244349    11616.6026    11    11801.1857    11437.2971  2392045    3.08%
 529820 328018    11548.9201    12    11801.1857    11493.1161  3157284    2.61%
 669467 401940    11584.2507    11    11801.1857    11538.5587  3944039    2.23%
 836926 471122    11586.1751    11    11801.1857    11582.3194  4838111    1.85%
 1011951 520328    11634.5288    12    11801.1857    11620.1180  5743760    1.53%
 1195191 541805        cutoff          11801.1857    11653.6614  6625897    1.25%
 1383684 523524        cutoff          11801.1857    11683.9348  7449002    0.99%

Clique cuts applied:  0
Flow path cuts applied:  0
Gomory fractional cuts applied:  0
Disjunctive cuts applied:  0
Cone linearizations applied:  0

Root node processing (before b&c):
  Real time             =    0.43 sec. (10.87 ticks)
Parallel b&c, 8 threads:
  Real time             =   68.97 sec. (9990.77 ticks)
  Sync time (average)   =   44.77 sec.
  Wait time (average)   =    1.17 sec.
                          ------------
Total (root+branch&cut) =   69.40 sec. (10001.64 ticks)
Gap: 0.93%
Upper bound: 11801.2
Lower bound: 11691.2
End of CPLEX run. Time: 69.4277 seconds
